42 28 40 69 76 33 32 35 63 30 46 38 64 74 41 5 16 9 66 44 47 27 55 67 45 52 6 31 65 49 57 26 8 21 62 73 72 14 23 36 71 37 51 3 20 4 19 0 22 60 61 50 54 15 43 68 24 11 56 59 13 34 39 25 75 17 48 1 58 2 10 7 70 29 53 18 12 